SAT
-1 -100 -99 -98 97 95 9 74 37 -40 -85 93 -28 64 -18 63 -34 88 -22 41 23 -58 -11 3 8 76 73 13 59 -53 44 48 -72 96 -31 38 16 43 50 89 -84 -36 90 33 83 24 47 -87 46 79 7 39 75 54 65 -45 -67 -69 35 -86 5 -66 82 -60 -21 -20 80 -70 -25 61 30 52 6 42 -12 -57 94 -91 -15 -29 -10 26 81 51 71 62 56 32 4 -14 17 -68 2 -78 -92 -49 55 19 -77 -27 0
